NAME : kroA200
TYPE : OP
DIMENSION : 200
COST_LIMIT : 26432
ROUTE_NODES : 180
ROUTE_SCORE : 9892
ROUTE_COST : 26421
NODE_SEQUENCE_SECTION
1
85
145
191
27
198
123
15
13
79
160
162
64
20
55
42
135
186
127
112
120
47
31
67
177
65
80
77
158
193
128
167
30
68
169
35
2
181
125
161
151
187
54
6
157
107
155
183
22
134
8
17
25
143
90
34
103
114
98
58
171
200
88
28
39
38
71
130
72
83
62
185
50
139
86
196
56
152
178
5
105
43
137
133
176
113
195
182
94
95
91
76
70
144
150
173
23
164
140
21
154
89
59
3
73
189
69
142
108
60
101
4
163
93
106
149
99
10
175
36
57
74
100
156
33
81
45
197
104
165
166
96
126
87
52
11
84
66
153
44
188
116
122
194
51
63
16
118
179
190
49
18
110
29
184
37
124
138
9
78
82
199
26
61
136
32
24
159
174
121
172
46
12
147
40
132
111
117
115
53
-1
DEPOT_SECTION
1
-1
EOF
